50
25676

493 944
594 719
723 429
67 549
383 857
759 661
509 146
839 742
554 884
884 44
554 906
250 749
293 842
17 127
777 929
594 173
440 983
679 321
375 128
677 740
752 767
567 565
689 892
528 232
922 825
216 29
522 529
320 505
612 40
402 55
940 872
643 105
992 95
945 457
948 215
323 962
60 829
526 384
722 441
974 338
405 88
375 874
654 302
797 878
688 227
430 671
730 526
430 805
507 737
164 508
